191728.0
1846
0 1 4 5 6 7 8 9 10 11 14 15 17 23 26 28 31 35 37 38 39 41 42 43 44 48 50 52 67 68 73 75 76 81 82 83 84 94 97 100 103 105 107 108 109 112 113 114 118 119 120 122 124 129 130 132 133 135 136 137 140 142 143 144 146 148 151 154 156 157 158 160 161 162 163 165 169 170 172 174 176 177 182 188 189 190 192 195 196 197 